60
1 0 153
2 0 53
2 1 83
3 0 132
3 1 33
3 2 25
4 1 143
4 3 19
5 0 111
5 1 146
5 2 129
5 3 77
5 4 22
6 0 77
6 1 104
6 2 1
6 3 122
6 5 126
7 1 151
7 2 141
7 3 34
7 4 47
7 5 25
7 6 36
8 0 141
8 1 23
8 4 41
8 5 25
8 6 116
8 7 34
9 0 48
9 1 60
9 2 44
9 4 53
9 5 57
9 6 103
9 7 82
9 8 156
10 0 149
10 1 154
10 2 12
10 3 104
10 4 1
10 5 3
10 6 65
10 7 107
10 9 73
11 0 146
11 1 121
11 2 142
11 3 120
11 4 86
11 6 8
11 7 160
11 8 102
11 9 83
12 0 130
12 1 131
12 2 64
12 3 119
12 4 3
12 5 160
12 6 50
12 7 152
12 8 24
12 9 123
12 10 17
12 11 58
13 0 4
13 1 53
13 2 70
13 5 11
13 6 122
13 7 44
13 8 157
13 9 127
13 10 25
13 11 18
13 12 82
14 0 117
14 2 129
14 3 133
14 4 159
14 6 74
14 7 11
14 8 25
14 9 138
14 10 128
14 11 88
14 12 76
14 13 47
15 0 58
15 1 64
15 2 101
15 3 74
15 4 54
15 6 27
15 7 20
15 8 137
15 9 149
15 10 113
15 11 139
15 12 99
15 13 142
15 14 102
16 0 38
16 1 135
16 2 10
16 3 81
16 4 43
16 5 60
16 6 154
16 7 20
16 8 127
16 9 62
16 10 51
16 11 127
16 12 52
16 13 129
16 14 88
16 15 94
17 2 113
17 3 9
17 4 102
17 5 25
17 6 19
17 7 121
17 8 124
17 9 67
17 10 38
17 11 79
17 12 138
17 14 4
17 15 33
17 16 38
18 0 140
18 1 125
18 2 122
18 3 97
18 4 139
18 5 89
18 6 13
18 7 83
18 8 159
18 10 4
18 11 43
18 12 99
18 13 66
18 14 24
18 15 45
18 16 93
18 17 5
19 0 42
19 1 33
19 2 134
19 3 51
19 4 63
19 5 77
19 6 14
19 7 91
19 8 124
19 9 153
19 10 108
19 11 45
19 12 68
19 13 16
19 14 7
19 15 119
19 16 80
19 17 96
19 18 103
20 0 87
20 1 8
20 3 59
20 4 9
20 5 145
20 7 129
20 8 106
20 9 105
20 10 16
20 11 97
20 12 15
20 13 120
20 14 101
20 15 57
20 16 109
20 17 141
20 18 160
20 19 53
21 0 137
21 1 83
21 2 88
21 3 110
21 4 99
21 5 39
21 6 50
21 7 141
21 8 140
21 9 83
21 10 65
21 11 148
21 12 18
21 13 118
21 14 118
21 15 133
21 16 96
21 17 123
21 18 137
21 19 2
21 20 102
22 0 29
22 1 4
22 2 80
22 3 86
22 4 126
22 5 143
22 6 39
22 7 69
22 8 34
22 10 23
22 11 126
22 13 100
22 14 142
22 15 149
22 16 120
22 17 144
22 18 5
22 19 1
22 20 78
22 21 119
23 0 139
23 1 85
23 2 158
23 3 92
23 4 94
23 5 28
23 6 24
23 8 32
23 9 127
23 10 36
23 11 145
23 12 118
23 13 88
23 14 82
23 15 155
23 16 46
23 17 44
23 18 86
23 19 50
23 21 1
23 22 49
24 0 5
24 1 91
24 2 118
24 3 117
24 5 2
24 6 20
24 7 119
24 8 68
24 10 49
24 11 108
24 12 10
24 13 47
24 14 81
24 15 143
24 16 160
24 17 130
24 18 150
24 19 1
24 20 121
24 21 112
24 22 153
24 23 107
25 1 87
25 2 159
25 3 38
25 4 10
25 5 133
25 6 114
25 7 144
25 8 19
25 9 96
25 10 101
25 11 52
25 12 120
25 13 28
25 14 29
25 15 16
25 16 93
25 17 35
25 18 64
25 19 43
25 21 134
25 22 10
25 23 109
25 24 140
26 0 79
26 1 76
26 2 81
26 3 13
26 4 35
26 5 139
26 6 93
26 7 113
26 8 72
26 9 24
26 10 137
26 11 66
26 12 12
26 13 33
26 14 139
26 15 95
26 16 91
26 17 20
26 18 120
26 19 72
26 20 74
26 21 95
26 22 141
26 23 143
26 24 16
26 25 33
27 0 122
27 1 128
27 2 122
27 3 120
27 4 137
27 5 18
27 6 122
27 7 100
27 8 76
27 9 114
27 10 2
27 13 11
27 14 27
27 15 12
27 16 12
27 17 57
27 18 116
27 19 141
27 20 57
27 21 28
27 22 17
27 23 75
27 24 124
27 26 125
28 0 119
28 1 75
28 2 140
28 3 31
28 4 39
28 5 97
28 6 60
28 7 41
28 8 51
28 9 122
28 10 107
28 11 41
28 14 111
28 15 17
28 16 120
28 17 31
28 18 123
28 19 45
28 20 83
28 21 110
28 22 86
28 23 38
28 24 105
28 25 140
28 26 75
29 0 32
29 1 98
29 2 120
29 3 46
29 4 58
29 6 31
29 7 110
29 8 31
29 9 85
29 11 24
29 12 12
29 13 82
29 14 36
29 15 143
29 16 40
29 17 96
29 18 141
29 19 34
29 20 129
29 21 122
29 22 112
29 23 15
29 24 153
29 25 14
29 26 142
29 27 55
29 28 29
30 1 97
30 2 49
30 3 3
30 4 115
30 6 116
30 7 73
30 8 29
30 9 65
30 10 26
30 11 37
30 12 127
30 13 7
30 14 129
30 15 68
30 16 63
30 17 74
30 18 73
30 19 148
30 20 118
30 21 132
30 25 23
30 26 74
30 27 11
30 28 127
31 0 62
31 1 137
31 2 57
31 3 101
31 4 9
31 5 83
31 6 138
31 7 130
31 8 42
31 9 5
31 10 54
31 11 37
31 12 156
31 13 140
31 14 31
31 15 23
31 16 18
31 17 37
31 18 151
31 19 63
31 20 130
31 21 150
31 22 37
31 23 84
31 24 52
31 25 24
31 26 56
31 27 70
31 28 107
31 29 91
31 30 25
32 0 19
32 1 96
32 2 123
32 4 150
32 5 27
32 6 141
32 8 66
32 9 146
32 10 89
32 11 155
32 12 4
32 13 42
32 15 35
32 16 56
32 17 33
32 19 97
32 21 135
32 22 57
32 24 84
32 26 6
32 27 86
32 28 32
32 29 45
32 31 62
33 0 86
33 1 3
33 2 38
33 3 128
33 4 119
33 5 29
33 7 45
33 8 36
33 9 24
33 11 32
33 12 20
33 13 60
33 14 18
33 15 116
33 16 72
33 17 20
33 18 156
33 19 141
33 20 104
33 21 85
33 22 5
33 23 39
33 24 51
33 25 149
33 26 105
33 27 33
33 28 157
33 29 141
33 30 41
33 32 80
34 0 97
34 1 113
34 2 131
34 3 70
34 4 132
34 5 135
34 6 94
34 7 130
34 8 122
34 9 147
34 10 68
34 11 62
34 12 30
34 13 60
34 14 46
34 15 60
34 16 58
34 17 146
34 19 105
34 20 123
34 22 3
34 23 33
34 24 89
34 26 148
34 27 107
34 29 115
34 30 150
34 31 90
34 33 28
35 0 103
35 1 72
35 5 151
35 6 108
35 8 83
35 9 92
35 11 8
35 12 77
35 13 99
35 14 121
35 15 34
35 16 11
35 17 20
35 19 6
35 20 45
35 21 59
35 22 22
35 23 79
35 24 79
35 25 80
35 26 8
35 27 79
35 28 42
35 29 124
35 30 39
35 31 72
35 32 58
35 34 92
36 0 148
36 1 157
36 2 19
36 3 47
36 4 146
36 5 147
36 6 72
36 7 8
36 8 62
36 9 31
36 10 127
36 11 124
36 12 14
36 13 36
36 14 128
36 15 24
36 16 65
36 17 27
36 18 107
36 19 90
36 20 108
36 21 36
36 22 48
36 23 35
36 24 152
36 25 151
36 26 4
36 27 152
36 28 55
36 29 107
36 31 52
36 32 57
36 33 70
36 34 20
36 35 1
37 0 9
37 1 152
37 2 14
37 3 102
37 4 27
37 5 147
37 6 51
37 8 144
37 9 114
37 10 23
37 11 89
37 12 52
37 13 153
37 14 74
37 15 97
37 16 23
37 17 15
37 18 113
37 19 147
37 20 37
37 21 142
37 23 37
37 24 47
37 25 121
37 26 78
37 27 90
37 28 100
37 29 55
37 30 71
37 31 86
37 32 16
37 33 133
37 34 52
37 35 3
37 36 39
38 0 86
38 1 43
38 2 151
38 3 76
38 4 125
38 5 120
38 6 27
38 7 112
38 8 63
38 9 29
38 10 63
38 11 103
38 12 1
38 13 51
38 14 149
38 15 54
38 16 84
38 17 83
38 18 33
38 19 82
38 21 18
38 22 155
38 23 63
38 26 3
38 27 139
38 28 7
38 29 136
38 30 20
38 31 38
38 34 58
38 35 25
38 36 81
38 37 18
39 0 119
39 1 53
39 2 69
39 3 14
39 4 105
39 5 117
39 6 129
39 7 56
39 8 9
39 9 90
39 10 122
39 11 50
39 12 131
39 13 4
39 14 77
39 15 134
39 16 65
39 17 95
39 18 96
39 19 121
39 20 83
39 21 122
39 22 95
39 23 29
39 24 105
39 25 98
39 26 127
39 28 34
39 29 106
39 30 91
39 32 28
39 33 13
39 34 94
39 35 111
39 37 154
39 38 32
40 0 149
40 1 75
40 2 107
40 3 16
40 4 128
40 5 117
40 6 98
40 7 49
40 8 131
40 9 31
40 10 94
40 11 20
40 12 55
40 13 95
40 14 1
40 15 131
40 16 32
40 17 159
40 18 148
40 19 149
40 20 124
40 22 58
40 23 73
40 24 75
40 25 119
40 26 46
40 29 157
40 30 155
40 31 67
40 32 109
40 33 121
40 34 95
40 36 111
40 38 7
40 39 153
41 0 65
41 1 39
41 2 45
41 3 118
41 4 18
41 5 150
41 6 156
41 7 137
41 8 146
41 9 7
41 10 51
41 12 107
41 13 38
41 14 49
41 16 38
41 17 145
41 18 97
41 19 74
41 20 38
41 21 48
41 22 139
41 24 131
41 25 95
41 27 18
41 28 126
41 29 126
41 30 16
41 32 123
41 33 126
41 34 131
41 35 43
41 36 6
41 37 84
41 38 154
41 39 65
41 40 130
42 0 15
42 1 105
42 2 22
42 3 157
42 4 53
42 5 81
42 6 64
42 7 85
42 8 66
42 9 79
42 10 42
42 11 68
42 12 80
42 13 82
42 14 129
42 15 90
42 16 32
42 17 100
42 18 8
42 19 69
42 20 65
42 21 71
42 22 1
42 23 111
42 24 86
42 25 69
42 26 84
42 27 138
42 28 17
42 29 141
42 30 85
42 31 113
42 32 20
42 33 149
42 35 158
42 36 96
42 37 115
42 38 106
42 39 21
42 40 70
43 0 76
43 1 13
43 2 116
43 3 126
43 5 126
43 6 21
43 7 88
43 8 101
43 9 19
43 10 87
43 11 155
43 12 5
43 13 91
43 14 28
43 15 82
43 16 57
43 17 101
43 18 157
43 19 55
43 20 37
43 21 91
43 22 76
43 23 129
43 24 37
43 25 25
43 26 107
43 27 120
43 28 40
43 29 75
43 30 118
43 31 157
43 32 46
43 33 101
43 34 113
43 36 88
43 37 148
43 38 81
43 39 47
43 40 2
43 41 54
43 42 105
44 0 118
44 1 26
44 2 92
44 3 154
44 4 82
44 5 60
44 6 53
44 7 64
44 8 43
44 9 5
44 10 25
44 11 104
44 12 87
44 13 128
44 14 57
44 15 7
44 16 81
44 18 147
44 19 79
44 20 45
44 21 29
44 22 85
44 23 43
44 24 152
44 25 111
44 26 49
44 27 150
44 28 85
44 30 15
44 31 139
44 32 117
44 33 9
44 34 157
44 35 27
44 36 151
44 37 97
44 38 118
44 39 81
44 40 106
44 42 50
44 43 129
45 0 146
45 1 78
45 3 122
45 4 108
45 5 10
45 6 80
45 7 117
45 8 24
45 9 130
45 10 23
45 11 55
45 12 1
45 13 142
45 14 66
45 15 25
45 16 82
45 17 70
45 18 133
45 20 77
45 21 142
45 22 42
45 23 20
45 24 74
45 25 102
45 26 77
45 27 120
45 28 54
45 29 77
45 30 18
45 31 49
45 32 45
45 33 115
45 34 51
45 36 156
45 37 11
45 38 65
45 40 74
45 41 68
45 42 48
45 43 138
45 44 58
46 0 71
46 1 50
46 2 47
46 3 28
46 4 45
46 5 7
46 6 72
46 8 50
46 10 77
46 11 58
46 12 147
46 13 114
46 14 36
46 15 53
46 16 20
46 17 149
46 18 37
46 19 56
46 20 26
46 21 85
46 22 20
46 23 27
46 24 38
46 25 114
46 26 61
46 27 93
46 28 102
46 29 152
46 30 36
46 31 19
46 32 90
46 33 20
46 35 156
46 36 39
46 37 45
46 38 41
46 39 108
46 40 134
46 41 106
46 42 144
46 43 25
46 45 45
47 0 36
47 1 127
47 2 70
47 3 59
47 4 152
47 5 22
47 6 25
47 7 4
47 8 89
47 9 44
47 10 20
47 11 139
47 12 21
47 13 21
47 14 29
47 15 147
47 17 14
47 19 12
47 20 27
47 21 152
47 22 24
47 23 41
47 24 15
47 26 132
47 27 93
47 29 2
47 30 113
47 31 151
47 32 37
47 34 118
47 35 11
47 36 82
47 37 77
47 38 46
47 39 142
47 40 101
47 41 36
47 45 84
47 46 47
48 1 154
48 2 153
48 4 130
48 5 134
48 6 88
48 8 137
48 9 38
48 10 129
48 11 115
48 12 25
48 13 88
48 14 107
48 15 37
48 16 156
48 17 80
48 18 16
48 21 62
48 22 126
48 23 114
48 24 33
48 25 43
48 26 152
48 27 135
48 28 159
48 29 130
48 30 8
48 31 83
48 32 81
48 33 118
48 34 56
48 35 62
48 36 15
48 37 26
48 38 117
48 39 60
48 40 111
48 41 68
48 42 143
48 43 123
48 44 96
48 45 45
48 46 109
48 47 158
49 0 78
49 1 45
49 2 4
49 3 46
49 4 121
49 5 40
49 6 62
49 7 14
49 8 122
49 10 49
49 11 111
49 12 157
49 13 89
49 14 99
49 15 82
49 17 128
49 18 64
49 19 14
49 20 149
49 21 142
49 23 84
49 24 73
49 25 42
49 26 146
49 27 141
49 28 54
49 29 68
49 30 43
49 31 6
49 32 157
49 33 138
49 34 83
49 35 4
49 36 122
49 37 152
49 38 70
49 39 97
49 40 98
49 41 18
49 42 31
49 44 22
49 46 66
49 47 6
49 48 69
50 0 87
50 1 130
50 2 119
50 3 127
50 4 76
50 5 42
50 6 43
50 7 118
50 8 71
50 9 151
50 10 56
50 11 95
50 12 88
50 13 65
50 14 158
50 16 83
50 19 127
50 20 6
50 21 113
50 22 111
50 23 54
50 24 130
50 25 72
50 26 97
50 27 140
50 28 125
50 29 113
50 30 25
50 31 104
50 32 58
50 33 117
50 35 41
50 36 73
50 37 114
50 38 25
50 40 11
50 41 49
50 42 61
50 44 50
50 45 76
50 46 159
50 47 125
50 48 92
50 49 124
51 0 111
51 1 138
51 2 142
51 3 54
51 4 103
51 5 77
51 6 72
51 7 79
51 8 55
51 9 65
51 10 49
51 11 113
51 12 114
51 13 128
51 15 37
51 16 10
51 17 52
51 18 38
51 19 120
51 20 91
51 21 137
51 22 1
51 23 46
51 24 97
51 25 152
51 26 68
51 27 6
51 28 4
51 29 52
51 30 95
51 31 150
51 32 155
51 33 64
51 34 141
51 35 79
51 37 5
51 39 156
51 40 99
51 41 53
51 42 121
51 44 149
51 45 56
51 46 9
51 47 63
51 48 160
51 50 154
52 0 65
52 1 6
52 2 19
52 3 43
52 4 113
52 5 40
52 7 105
52 8 144
52 9 160
52 10 55
52 11 106
52 12 138
52 13 49
52 14 142
52 15 153
52 16 136
52 17 140
52 18 62
52 19 77
52 20 24
52 21 96
52 22 40
52 23 86
52 24 118
52 25 77
52 26 79
52 27 79
52 28 68
52 29 75
52 30 27
52 31 105
52 32 81
52 33 109
52 34 8
52 35 90
52 36 49
52 37 141
52 38 121
52 39 19
52 41 109
52 42 142
52 43 111
52 44 37
52 46 71
52 47 86
52 48 26
52 49 36
52 50 132
52 51 142
53 1 63
53 2 107
53 3 32
53 4 46
53 5 58
53 7 4
53 8 52
53 9 7
53 10 101
53 12 102
53 13 54
53 14 22
53 15 98
53 16 160
53 17 114
53 18 111
53 20 140
53 21 58
53 22 8
53 25 79
53 26 70
53 27 147
53 28 66
53 29 96
53 30 106
53 31 57
53 32 16
53 33 146
53 34 93
53 35 96
53 36 22
53 37 138
53 38 72
53 39 96
53 40 155
53 41 50
53 42 139
53 44 102
53 45 110
53 46 152
53 47 25
53 48 117
53 49 95
53 50 124
53 51 152
53 52 149
54 0 97
54 1 9
54 2 120
54 3 76
54 4 6
54 5 100
54 6 42
54 7 31
54 8 87
54 9 4
54 10 103
54 11 68
54 12 62
54 13 86
54 14 25
54 15 48
54 16 118
54 18 126
54 19 101
54 20 138
54 21 127
54 22 52
54 23 6
54 24 118
54 25 138
54 26 28
54 27 71
54 29 97
54 30 65
54 31 29
54 32 66
54 33 126
54 34 107
54 36 31
54 37 46
54 38 85
54 39 11
54 40 90
54 41 21
54 42 144
54 43 147
54 44 111
54 45 146
54 46 114
54 47 117
54 48 137
54 49 63
54 50 24
54 51 83
54 53 91
55 0 160
55 1 78
55 2 73
55 3 64
55 4 82
55 5 90
55 6 24
55 7 138
55 8 115
55 9 27
55 10 45
55 11 57
55 12 159
55 14 4
55 15 102
55 16 4
55 17 42
55 18 19
55 19 41
55 20 98
55 21 64
55 22 105
55 23 159
55 24 19
55 25 160
55 26 70
55 27 2
55 28 149
55 29 71
55 30 112
55 31 132
55 32 66
55 33 134
55 34 82
55 35 132
55 36 93
55 37 18
55 38 49
55 39 56
55 40 159
55 41 125
55 42 79
55 43 60
55 44 61
55 45 33
55 46 47
55 47 52
55 48 122
55 49 70
55 50 24
55 51 124
55 52 14
55 53 151
55 54 66
56 0 143
56 1 106
56 3 31
56 4 73
56 5 133
56 7 83
56 8 46
56 9 2
56 10 33
56 11 73
56 12 57
56 13 83
56 14 118
56 15 11
56 16 104
56 17 156
56 18 141
56 20 33
56 21 67
56 22 73
56 23 16
56 24 52
56 25 66
56 26 90
56 28 116
56 29 52
56 30 56
56 31 52
56 32 51
56 33 43
56 34 51
56 35 19
56 36 35
56 37 18
56 38 24
56 39 22
56 40 145
56 41 126
56 42 139
56 43 69
56 44 108
56 45 102
56 46 86
56 47 111
56 48 30
56 49 65
56 50 143
56 51 42
56 52 154
56 53 83
56 54 159
56 55 12
57 1 61
57 3 39
57 4 79
57 5 120
57 6 160
57 7 101
57 8 148
57 9 3
57 10 100
57 11 6
57 12 96
57 13 120
57 14 31
57 15 140
57 17 23
57 18 111
57 20 79
57 21 21
57 22 8
57 23 35
57 24 8
57 26 20
57 27 62
57 28 7
57 29 133
57 30 5
57 31 140
57 32 50
57 33 87
57 34 65
57 36 30
57 37 118
57 38 40
57 39 40
57 40 69
57 41 140
57 42 3
57 43 67
57 44 130
57 45 124
57 46 72
57 47 4
57 48 87
57 49 128
57 50 106
57 51 157
57 52 44
57 53 83
57 54 120
57 55 126
57 56 101
58 0 147
58 1 149
58 2 86
58 3 88
58 4 94
58 5 95
58 6 33
58 8 155
58 9 36
58 10 118
58 11 99
58 12 79
58 13 59
58 14 159
58 15 74
58 16 110
58 17 121
58 18 49
58 20 124
58 21 66
58 22 138
58 23 105
58 24 41
58 26 32
58 27 17
58 28 18
58 31 13
58 32 121
58 34 124
58 35 128
58 36 150
58 38 100
58 39 25
58 40 147
58 41 118
58 42 29
58 43 43
58 45 24
58 46 7
58 47 57
58 48 28
58 49 45
58 50 14
58 51 123
58 52 12
58 53 93
58 55 17
58 56 106
58 57 36
59 0 66
59 1 49
59 2 59
59 3 2
59 4 56
59 6 42
59 7 134
59 8 38
59 9 98
59 10 91
59 11 54
59 12 78
59 13 145
59 14 45
59 15 141
59 16 91
59 17 149
59 18 122
59 19 138
59 20 47
59 22 25
59 23 30
59 24 132
59 25 58
59 26 31
59 27 79
59 28 154
59 29 20
59 30 140
59 31 67
59 32 142
59 33 6
59 34 131
59 35 142
59 36 76
59 37 128
59 38 130
59 39 40
59 40 121
59 41 144
59 43 93
59 44 51
59 45 20
59 48 140
59 49 111
59 50 73
59 51 46
59 52 77
59 55 123
59 56 92
59 57 10
59 58 45
